NAME : instances/clustered-mixed-tsp/instance-46.tsp
COMMENT : No Comment
TYPE : TSP
DIMENSION: 52
EDGE_WEIGHT_TYPE : EUC_2D
NODE_COORD_SECTION
1 -8 680 
2 1269 667 
3 594 719 
4 705 238 
5 367 1215 
6 965 152 
7 621 806 
8 245 830 
9 707 393 
10 201 -213 
11 1204 585 
12 1156 867 
13 -156 1304 
14 620 394 
15 -235 722 
16 538 428 
17 461 992 
18 1092 576 
19 793 306 
20 306 -155 
21 861 757 
22 610 778 
23 522 565 
24 709 636 
25 301 -54 
26 575 959 
27 790 308 
28 1054 608 
29 1090 1193 
30 488 268 
31 611 173 
32 582 317 
33 300 807 
34 453 103 
35 102 928 
36 437 -97 
37 333 690 
38 385 764 
39 1191 1224 
40 701 709 
41 697 464 
42 1063 341 
43 59 1153 
44 -295 465 
45 1292 763 
46 218 532 
47 1255 91 
48 543 563 
49 490 723 
50 290 45 
51 1189 866 
52 -11 632 
EOF
